000 030 084 056 -01 -01 -01 075 -01 080
030 000 065 -01 -01 -01 -70 -01 -01 040
084 065 000 074 052 055 -01 -60 143 048
056 -01 074 000 135 -01 -01 020 -01 -01
-01 -01 052 135 000 070 -01 122 098 080
070 -01 055 -01 -70 000 063 -01 082 035
-01 070 -01 -01 -01 063 000 -01 120 057
075 -01 135 020 122 -01 -01 000 -01 -01
-01 -01 143 -01 098 082 120 -01 000 -01
080 040 048 -01 080 035 057 -01 -01 000
